language Essence 1.3

letting class be
        function(1 --> 7, 2 --> 1, 3 --> 2, 4 --> 1, 5 --> 6, 6 --> 10, 7 --> 5, 8 --> 2, 9 --> 1, 10 --> 4, 11 --> 4,
                 12 --> 1, 13 --> 10, 14 --> 9, 15 --> 6, 16 --> 3, 17 --> 3, 18 --> 8, 19 --> 6, 20 --> 5, 21 --> 8,
                 22 --> 2, 23 --> 9, 24 --> 9, 25 --> 1, 26 --> 5, 27 --> 9)
letting deck_length be 74
letting deck_width be 23
letting length be
        function(1 --> 1, 2 --> 1, 3 --> 1, 4 --> 1, 5 --> 8, 6 --> 1, 7 --> 1, 8 --> 1, 9 --> 1, 10 --> 1, 11 --> 1,
                 12 --> 1, 13 --> 1, 14 --> 1, 15 --> 1, 16 --> 5, 17 --> 1, 18 --> 1, 19 --> 8, 20 --> 1, 21 --> 1,
                 22 --> 1, 23 --> 1, 24 --> 1, 25 --> 1, 26 --> 5, 27 --> 1)
letting n_classes be 10
letting n_containers be 27
letting separation be function({3, 4} --> 5, {3, 6} --> 27)
letting width be
        function(1 --> 1, 2 --> 1, 3 --> 1, 4 --> 1, 5 --> 6, 6 --> 1, 7 --> 1, 8 --> 1, 9 --> 1, 10 --> 1, 11 --> 1,
                 12 --> 1, 13 --> 1, 14 --> 1, 15 --> 1, 16 --> 22, 17 --> 1, 18 --> 1, 19 --> 15, 20 --> 1, 21 --> 1,
                 22 --> 1, 23 --> 1, 24 --> 1, 25 --> 1, 26 --> 1, 27 --> 1)
